 &control
    calculation = 'scf'
    restart_mode='from_scratch',
    prefix='NiO-cubic',
    tstress = .false.
    tprnfor = .true.
    pseudo_dir = '/home/emil/Pseudo/nc-sr-04_pbe_stringent/'
    outdir='./out',
    verbosity = 'high'
 /
 &system
    ibrav=8,
    celldm(1)       = 15.7622
    celldm(2)       = 1.0
    celldm(3)       = 1.0
    nbnd=448   
    nat=64,
    ntyp      = 3,
    lda_plus_u = .true.,
    Hubbard_U(2) = 6.5,
    Hubbard_U(3) = 6.5,
    ecutwfc=307.632,
    occupations='smearing',
    smearing='mv', degauss=0.0002,
    nspin=2,
    starting_magnetization(2)= 1.0,
    starting_magnetization(3)=-1.0,
    input_dft = 'PBE'
 /
 &electrons
    mixing_beta = 0.25
    diagonalization = 'davidson',
    conv_thr =  1.0d-8
 /
ATOMIC_SPECIES
 O    1.  O.upf
 Ni   1.  Ni.upf
 Ni1  1.  Ni.upf
ATOMIC_POSITIONS crystal
O    0.250000    0.250000    0.250000
O    0.000000    0.000000    0.750000
O    0.250000    0.000000    0.500000
O    0.500000    0.000000    0.250000
O    0.000000    0.250000    0.500000
O    0.500000    0.250000    0.000000
O    0.000000    0.500000    0.250000
O    0.250000    0.500000    0.000000
O    0.750000    0.250000    0.750000
O    0.500000    0.500000    0.750000
O    0.750000    0.500000    0.500000
O    0.250000    0.750000    0.750000
O    0.500000    0.750000    0.500000
O    0.750000    0.750000    0.250000
O    0.750000    0.000000    0.000000
O    0.000000    0.750000    0.000000
O    0.000000    0.000000    0.250000
O    0.250000    0.000000    0.000000
O    0.000000    0.250000    0.000000
O    0.250000    0.250000    0.750000
O    0.500000    0.250000    0.500000
O    0.750000    0.250000    0.250000
O    0.250000    0.500000    0.500000
O    0.500000    0.500000    0.250000
O    0.750000    0.500000    0.000000
O    0.250000    0.750000    0.250000
O    0.500000    0.750000    0.000000
O    0.500000    0.000000    0.750000
O    0.750000    0.000000    0.500000
O    0.000000    0.500000    0.750000
O    0.000000    0.750000    0.500000
O    0.750000    0.750000    0.750000
Ni    0.000000    0.000000    0.000000
Ni    0.250000    0.000000    0.750000
Ni    0.500000    0.000000    0.500000
Ni    0.000000    0.250000    0.750000
Ni    0.250000    0.250000    0.500000
Ni    0.500000    0.250000    0.250000
Ni    0.000000    0.500000    0.500000
Ni    0.250000    0.500000    0.250000
Ni    0.500000    0.500000    0.000000
Ni    0.750000    0.000000    0.250000
Ni    0.750000    0.250000    0.000000
Ni    0.000000    0.750000    0.250000
Ni    0.250000    0.750000    0.000000
Ni    0.750000    0.500000    0.750000
Ni    0.500000    0.750000    0.750000
Ni    0.750000    0.750000    0.500000
Ni1   0.250000    0.250000    0.000000
Ni1   0.000000    0.000000    0.500000
Ni1   0.250000    0.000000    0.250000
Ni1   0.500000    0.000000    0.000000
Ni1   0.000000    0.250000    0.250000
Ni1   0.000000    0.500000    0.000000
Ni1   0.500000    0.250000    0.750000
Ni1   0.750000    0.250000    0.500000
Ni1   0.250000    0.500000    0.750000
Ni1   0.500000    0.500000    0.500000
Ni1   0.750000    0.500000    0.250000
Ni1   0.250000    0.750000    0.500000
Ni1   0.500000    0.750000    0.250000
Ni1   0.750000    0.750000    0.000000
Ni1   0.750000    0.000000    0.750000
Ni1   0.000000    0.750000    0.750000
K_POINTS {gamma}
