&CONTROL
  calculation = 'scf'
  etot_conv_thr =   8.6000000000d-04
  forc_conv_thr =   1.0000000000d-04
  outdir = './out/'
  prefix = 'aiida'
  pseudo_dir = '/home/briggs/Pseudo/nc-sr-04_pbe_stringent/'
  tprnfor = .true.
  tstress = .true.
  verbosity = 'high'
/
&SYSTEM
  degauss =   1.4699723600d-02
  ecutwfc =   170.818
  ibrav = 0
  nat = 86
  nosym = .false.
  ntyp = 4
  occupations = 'smearing'
  smearing = 'cold'
/
&ELECTRONS
  conv_thr =   1.7200000000d-08
  electron_maxstep = 80
  mixing_beta =   4.0000000000d-01
/
ATOMIC_SPECIES
B   10.811     B.upf
H    1.008     H.upf
Na  22.990    Na.upf
O   15.999     O.upf
ATOMIC_POSITIONS crystal
B            0.4305100000       0.7405300000       0.7844700000 
B            0.7405300000       0.4305100000       0.2844700000 
B            0.2594700000       0.5694900000       0.7155300000 
B            0.5694900000       0.2594700000       0.2155300000 
B            0.5549000000       0.6420400000       0.6073100000 
B            0.6420400000       0.5549000000       0.1073100000 
B            0.3579600000       0.4451000000       0.8926900000 
B            0.4451000000       0.3579600000       0.3926900000 
H            0.0339000000       0.5095000000       0.7124000000 
H            0.5095000000       0.0339000000       0.2124000000 
H            0.4905000000       0.9661000000       0.7876000000 
H            0.9661000000       0.4905000000       0.2876000000 
H            0.5854000000       0.6520000000       0.9695000000 
H            0.6520000000       0.5854000000       0.4695000000 
H            0.3480000000       0.4146000000       0.5305000000 
H            0.4146000000       0.3480000000       0.0305000000 
H            0.6917000000       0.9261000000       0.9587000000 
H            0.9261000000       0.6917000000       0.4587000000 
H            0.0739000000       0.3083000000       0.5413000000 
H            0.3083000000       0.0739000000       0.0413000000 
H            0.0680000000       0.6644000000       0.5059000000 
H            0.6644000000       0.0680000000       0.0059000000 
H            0.3356000000       0.9320000000       0.9941000000 
H            0.9320000000       0.3356000000       0.4941000000 
H            0.7915000000       0.8281000000       0.6949000000 
H            0.8281000000       0.7915000000       0.1949000000 
H            0.1719000000       0.2085000000       0.8051000000 
H            0.2085000000       0.1719000000       0.3051000000 
H            0.2080000000       0.0528000000       0.7986000000 
H            0.0528000000       0.2080000000       0.2986000000 
H            0.9472000000       0.7920000000       0.7014000000 
H            0.7920000000       0.9472000000       0.2014000000 
H            0.1005000000       0.7193000000       0.8925000000 
H            0.7193000000       0.1005000000       0.3925000000 
H            0.2807000000       0.8995000000       0.6075000000 
H            0.8995000000       0.2807000000       0.1075000000 
H            0.9496000000       0.6766000000       0.9648000000 
H            0.6766000000       0.9496000000       0.4648000000 
H            0.3234000000       0.0504000000       0.5352000000 
H            0.0504000000       0.3234000000       0.0352000000 
H            0.5318000000       0.2718000000       0.6615000000 
H            0.2718000000       0.5318000000       0.1615000000 
H            0.7282000000       0.4682000000       0.8385000000 
H            0.4682000000       0.7282000000       0.3385000000 
H            0.8471000000       0.3809000000       0.8942000000 
H            0.3809000000       0.8471000000       0.3942000000 
H            0.6191000000       0.1529000000       0.6058000000 
H            0.1529000000       0.6191000000       0.1058000000 
Na           0.0000000000       0.0000000000       0.0000000000 
Na           0.0000000000       0.0000000000       0.5000000000 
Na           0.8479500000       0.1520500000       0.7500000000 
Na           0.1520500000       0.8479500000       0.2500000000 
O            0.2665900000       0.7334100000       0.7500000000 
O            0.7334100000       0.2665900000       0.2500000000 
O            0.5747300000       0.7361900000       0.6842600000 
O            0.7361900000       0.5747300000       0.1842600000 
O            0.2638100000       0.4252700000       0.8157400000 
O            0.4252700000       0.2638100000       0.3157400000 
O            0.4553700000       0.5839100000       0.8755500000 
O            0.5839100000       0.4553700000       0.3755500000 
O            0.4160900000       0.5446300000       0.6244500000 
O            0.5446300000       0.4160900000       0.1244500000 
O            0.4315400000       0.8912600000       0.8322800000 
O            0.8912600000       0.4315400000       0.3322800000 
O            0.1087400000       0.5684600000       0.6677200000 
O            0.5684600000       0.1087400000       0.1677200000 
O            0.6789100000       0.6484700000       0.5087000000 
O            0.6484700000       0.6789100000       0.0087000000 
O            0.3515300000       0.3210900000       0.9913000000 
O            0.3210900000       0.3515300000       0.4913000000 
O            0.9696400000       0.2775000000       0.5515400000 
O            0.2775000000       0.9696400000       0.0515400000 
O            0.7225000000       0.0303600000       0.9484600000 
O            0.0303600000       0.7225000000       0.4484600000 
O            0.1241300000       0.1217900000       0.8045200000 
O            0.1217900000       0.1241300000       0.3045200000 
O            0.8782100000       0.8758700000       0.6954800000 
O            0.8758700000       0.8782100000       0.1954800000 
O            0.2847500000       0.9536300000       0.5374800000 
O            0.9536300000       0.2847500000       0.0374800000 
O            0.0463700000       0.7152500000       0.9625200000 
O            0.7152500000       0.0463700000       0.4625200000 
O            0.8240000000       0.4109200000       0.8277300000 
O            0.4109200000       0.8240000000       0.3277300000 
O            0.5890800000       0.1760000000       0.6722700000 
O            0.1760000000       0.5890800000       0.1722700000 
K_POINTS automatic
5 5 3 0 0 0
CELL_PARAMETERS angstrom
      5.6888357207       5.3013000000      -1.7164774292
      5.6888357207      -5.3013000000      -1.7164774292
     -0.0000000000      -0.0000000000     -12.2111000000

